NAME : census.pruned_local_8.0.tour
COMMENT : Length = 0
TYPE : TOUR
DIMENSION : 68
TOUR_SECTION
4
33
13
40
42
38
3
5
7
67
60
47
46
31
35
30
8
36
1
26
28
63
59
61
32
65
68
37
18
34
53
51
29
45
48
50
64
62
14
17
21
25
24
52
22
49
23
20
15
11
27
44
43
58
2
57
54
19
9
55
56
12
41
66
16
39
10
6
-1
EOF
